************************************************************************
file with basedata            : mb14_.bas
initial value random generator: 1318473464
************************************************************************
projects                      :  1
jobs (incl. supersource/sink ):  12
horizon                       :  81
RESOURCES
  - renewable                 :  2   R
  - nonrenewable              :  2   N
  - doubly constrained        :  0   D
************************************************************************
PROJECT INFORMATION:
pronr.  #jobs rel.date duedate tardcost  MPM-Time
    1     10      0       14        5       14
************************************************************************
PRECEDENCE RELATIONS:
jobnr.    #modes  #successors   successors
   0        1          3           1   2   3
   1        3          3           7   9  10
   2        3          2           4   8
   3        3          1           5
   4        3          1           6
   5        3          2           6   7
   6        3          2           9  10
   7        3          1           8
   8        3          1          11
   9        3          1          11
  10        3          1          11
  11        1          0        
************************************************************************
REQUESTS/DURATIONS:
jobnr. mode duration  R 1  R 2  R 3  R 4  E(W 1)  E(W 2)  E(W 3)
------------------------------------------------------------------------
  0      1     0       0    0    0    0     0       0       0
  1      1     3       9   10    6    2    57      18       6
  2      1     4       9    7    6    7    64      24      28
  3      1     3       5    6    7    6    33      21      18
  4      1     1       8    4    6    3    12       6       3
  5      1     3       7    9    6    6    48      18      18
  6      1     1       7   10    8    8    17       8       8
  7      1     7       7    8    7    4    105      49      28
  8      1     1       5    8    5    6    13       5       6
  9      1     3       4    9    6   10    39      18      30
 10      1     2      10    5    8   10    30      16      20
 11      1     0       0    0    0    0     0       0       0
************************************************************************
RESOURCEAVAILABILITIES:
  R 1  R 2  R 3
   23   71   62
************************************************************************
RESOURCE LIMITS:
jobnr.  l(R 1)  u(R 1)  l(R 2)  u(R 2)  l(R 3)  u(R 3)
------------------------------------------------------------------------
  0        0       0       0       0       0       0
  1       10      19       3       6       1       2
  2        9      16       3       6       4       7
  3        6      11       4       7       3       6
  4        6      12       3       6       2       3
  5        9      16       3       6       3       6
  6        9      17       4       8       4       8
  7        8      15       4       7       2       4
  8        7      13       3       5       3       6
  9        7      13       3       6       5      10
 10        8      15       4       8       5      10
 11        0       0       0       0       0       0
************************************************************************
SCENARIOS:
------------------------------------------------------------------------
RESOURCE k = 1
s = 1: (0, 102, 93, 24, 10, 64, 11, 103, 13, 34, 17, 0)
s = 2: (0, 53, 48, 27, 13, 49, 15, 63, 10, 48, 53, 0)
s = 3: (0, 61, 49, 23, 8, 76, 27, 108, 14, 42, 31, 0)
s = 4: (0, 38, 60, 46, 10, 37, 16, 81, 19, 31, 32, 0)
s = 5: (0, 40, 61, 48, 13, 40, 19, 159, 20, 56, 32, 0)
s = 6: (0, 83, 47, 31, 16, 30, 16, 131, 13, 31, 47, 0)
s = 7: (0, 65, 44, 36, 8, 69, 19, 146, 12, 55, 39, 0)
s = 8: (0, 47, 62, 34, 17, 74, 18, 95, 18, 22, 55, 0)
s = 9: (0, 51, 54, 23, 10, 51, 20, 201, 14, 26, 23, 0)
s = 10: (0, 55, 81, 38, 14, 41, 20, 110, 9, 28, 37, 0)
s = 11: (0, 50, 81, 28, 11, 49, 17, 170, 17, 36, 32, 0)
s = 12: (0, 77, 57, 37, 12, 51, 15, 96, 11, 55, 19, 0)
s = 13: (0, 65, 71, 22, 11, 45, 14, 104, 12, 36, 41, 0)
s = 14: (0, 30, 66, 32, 12, 34, 26, 136, 10, 44, 28, 0)
s = 15: (0, 60, 78, 29, 15, 43, 14, 68, 22, 22, 42, 0)
s = 16: (0, 49, 50, 38, 16, 43, 16, 152, 13, 41, 37, 0)
s = 17: (0, 64, 58, 30, 9, 61, 16, 113, 16, 34, 24, 0)
s = 18: (0, 52, 59, 32, 10, 45, 30, 68, 15, 32, 47, 0)
s = 19: (0, 49, 60, 47, 11, 40, 28, 69, 11, 46, 23, 0)
s = 20: (0, 43, 59, 31, 15, 26, 13, 102, 12, 29, 21, 0)
s = 21: (0, 32, 64, 30, 8, 58, 12, 98, 16, 36, 38, 0)
s = 22: (0, 85, 83, 28, 11, 38, 20, 80, 19, 46, 31, 0)
s = 23: (0, 55, 59, 51, 13, 48, 18, 93, 14, 21, 33, 0)
s = 24: (0, 75, 51, 34, 14, 41, 21, 99, 10, 49, 35, 0)
s = 25: (0, 40, 72, 45, 11, 43, 13, 197, 13, 68, 36, 0)
s = 26: (0, 84, 53, 34, 12, 42, 15, 125, 12, 40, 29, 0)
s = 27: (0, 38, 95, 24, 13, 49, 14, 99, 15, 40, 20, 0)
s = 28: (0, 42, 58, 18, 17, 40, 18, 93, 9, 51, 19, 0)
s = 29: (0, 52, 83, 46, 12, 42, 17, 75, 20, 26, 22, 0)
s = 30: (0, 57, 52, 33, 9, 42, 17, 85, 11, 31, 27, 0)
s = 31: (0, 35, 59, 33, 14, 47, 14, 75, 13, 52, 32, 0)
s = 32: (0, 41, 74, 21, 10, 45, 14, 106, 11, 28, 28, 0)
s = 33: (0, 33, 92, 30, 13, 35, 13, 82, 18, 33, 41, 0)
s = 34: (0, 50, 102, 39, 9, 60, 12, 58, 9, 25, 22, 0)
s = 35: (0, 42, 43, 45, 8, 42, 18, 125, 17, 31, 26, 0)
s = 36: (0, 77, 97, 35, 16, 42, 25, 60, 15, 43, 32, 0)
s = 37: (0, 48, 56, 33, 22, 59, 24, 93, 13, 34, 32, 0)
s = 38: (0, 68, 42, 28, 11, 54, 23, 101, 15, 46, 35, 0)
s = 39: (0, 81, 79, 49, 10, 37, 11, 127, 19, 43, 21, 0)
s = 40: (0, 59, 52, 32, 16, 35, 21, 100, 10, 60, 18, 0)
s = 41: (0, 49, 44, 29, 16, 53, 15, 141, 9, 30, 32, 0)
s = 42: (0, 91, 86, 28, 16, 35, 13, 93, 15, 32, 34, 0)
s = 43: (0, 70, 74, 24, 14, 42, 15, 153, 11, 37, 22, 0)
s = 44: (0, 46, 75, 36, 13, 50, 17, 99, 14, 61, 41, 0)
s = 45: (0, 74, 60, 24, 12, 55, 33, 139, 16, 48, 22, 0)
s = 46: (0, 74, 87, 28, 8, 38, 17, 62, 10, 47, 21, 0)
s = 47: (0, 46, 42, 31, 16, 60, 14, 81, 9, 23, 32, 0)
s = 48: (0, 54, 84, 37, 12, 56, 16, 74, 14, 38, 40, 0)
s = 49: (0, 44, 96, 47, 8, 45, 17, 78, 11, 58, 24, 0)
s = 50: (0, 65, 53, 20, 10, 75, 18, 82, 17, 23, 28, 0)
s = 51: (0, 65, 58, 43, 7, 55, 14, 110, 19, 51, 33, 0)
s = 52: (0, 53, 40, 36, 8, 41, 26, 128, 11, 48, 22, 0)
s = 53: (0, 39, 64, 36, 9, 58, 14, 91, 11, 55, 30, 0)
s = 54: (0, 47, 79, 37, 18, 48, 17, 101, 12, 30, 36, 0)
s = 55: (0, 46, 47, 22, 16, 68, 18, 97, 9, 27, 29, 0)
s = 56: (0, 39, 46, 36, 10, 46, 21, 124, 10, 27, 26, 0)
s = 57: (0, 53, 79, 18, 14, 33, 15, 68, 10, 40, 21, 0)
s = 58: (0, 74, 37, 18, 10, 67, 15, 60, 9, 31, 29, 0)
s = 59: (0, 70, 42, 39, 12, 70, 14, 76, 12, 50, 32, 0)
s = 60: (0, 82, 91, 25, 17, 56, 12, 79, 10, 48, 40, 0)
s = 61: (0, 44, 78, 24, 16, 46, 25, 68, 16, 54, 18, 0)
s = 62: (0, 59, 60, 35, 11, 31, 16, 81, 8, 28, 21, 0)
s = 63: (0, 42, 47, 32, 13, 34, 11, 120, 8, 26, 25, 0)
s = 64: (0, 94, 70, 29, 15, 37, 15, 107, 12, 45, 33, 0)
s = 65: (0, 59, 64, 26, 9, 41, 22, 66, 8, 42, 38, 0)
s = 66: (0, 38, 74, 23, 10, 48, 21, 77, 12, 62, 37, 0)
s = 67: (0, 56, 40, 24, 9, 46, 20, 88, 12, 32, 23, 0)
s = 68: (0, 34, 99, 30, 14, 48, 11, 119, 18, 51, 44, 0)
s = 69: (0, 31, 63, 51, 12, 47, 26, 110, 8, 21, 50, 0)
s = 70: (0, 64, 53, 35, 11, 35, 13, 87, 10, 72, 23, 0)
s = 71: (0, 104, 68, 36, 16, 47, 10, 103, 17, 42, 30, 0)
s = 72: (0, 47, 55, 28, 13, 36, 19, 90, 21, 30, 32, 0)
s = 73: (0, 41, 77, 40, 15, 52, 14, 117, 16, 37, 34, 0)
s = 74: (0, 91, 94, 40, 7, 48, 29, 137, 20, 26, 21, 0)
s = 75: (0, 67, 48, 36, 11, 46, 20, 176, 8, 33, 34, 0)
s = 76: (0, 54, 78, 31, 15, 46, 31, 100, 12, 57, 44, 0)
s = 77: (0, 39, 77, 34, 17, 47, 19, 82, 9, 24, 25, 0)
s = 78: (0, 38, 48, 32, 12, 70, 20, 80, 18, 54, 30, 0)
s = 79: (0, 36, 62, 40, 11, 62, 12, 142, 11, 31, 21, 0)
s = 80: (0, 53, 44, 22, 12, 78, 12, 109, 17, 43, 22, 0)
s = 81: (0, 63, 40, 59, 18, 44, 18, 92, 13, 37, 28, 0)
s = 82: (0, 35, 69, 30, 11, 43, 15, 112, 12, 28, 27, 0)
s = 83: (0, 53, 73, 45, 15, 45, 18, 60, 12, 33, 20, 0)
s = 84: (0, 33, 48, 22, 10, 50, 15, 92, 12, 40, 24, 0)
s = 85: (0, 58, 89, 35, 10, 42, 20, 68, 12, 42, 32, 0)
s = 86: (0, 106, 66, 27, 10, 68, 10, 89, 16, 33, 25, 0)
s = 87: (0, 50, 84, 34, 18, 46, 13, 73, 18, 37, 32, 0)
s = 88: (0, 38, 48, 26, 8, 68, 12, 73, 8, 57, 43, 0)
s = 89: (0, 87, 84, 37, 15, 70, 18, 105, 12, 46, 32, 0)
s = 90: (0, 42, 41, 48, 8, 59, 14, 107, 16, 39, 44, 0)
s = 91: (0, 56, 78, 25, 13, 72, 22, 98, 14, 41, 28, 0)
s = 92: (0, 52, 47, 22, 11, 30, 20, 71, 15, 34, 28, 0)
s = 93: (0, 58, 45, 35, 17, 43, 13, 112, 20, 44, 40, 0)
s = 94: (0, 76, 87, 49, 10, 49, 18, 155, 19, 43, 31, 0)
s = 95: (0, 79, 55, 21, 10, 54, 15, 68, 13, 33, 43, 0)
s = 96: (0, 70, 48, 19, 10, 62, 21, 82, 8, 36, 37, 0)
s = 97: (0, 92, 72, 53, 14, 46, 16, 81, 16, 35, 21, 0)
s = 98: (0, 57, 74, 31, 16, 59, 20, 105, 8, 34, 28, 0)
s = 99: (0, 70, 74, 23, 12, 81, 18, 81, 17, 29, 21, 0)
s = 100: (0, 41, 42, 37, 17, 35, 19, 87, 15, 30, 30, 0)
s = 101: (0, 70, 62, 35, 14, 39, 22, 78, 19, 26, 37, 0)
s = 102: (0, 85, 78, 25, 9, 74, 30, 70, 12, 32, 24, 0)
s = 103: (0, 33, 49, 28, 17, 34, 12, 86, 11, 32, 45, 0)
s = 104: (0, 50, 34, 26, 17, 48, 22, 70, 25, 53, 42, 0)
s = 105: (0, 62, 70, 42, 17, 48, 16, 93, 20, 40, 41, 0)
s = 106: (0, 45, 94, 32, 10, 46, 17, 120, 12, 40, 31, 0)
s = 107: (0, 47, 73, 23, 11, 38, 26, 93, 10, 67, 19, 0)
s = 108: (0, 39, 50, 25, 7, 34, 14, 82, 11, 25, 43, 0)
s = 109: (0, 56, 92, 40, 8, 58, 18, 65, 14, 41, 25, 0)
s = 110: (0, 45, 82, 34, 11, 65, 22, 137, 23, 37, 38, 0)
s = 111: (0, 38, 80, 43, 11, 30, 16, 59, 17, 41, 34, 0)
s = 112: (0, 36, 98, 34, 14, 36, 21, 110, 14, 49, 28, 0)
s = 113: (0, 59, 101, 42, 13, 55, 18, 65, 11, 32, 35, 0)
s = 114: (0, 39, 66, 35, 7, 49, 12, 153, 15, 42, 36, 0)
s = 115: (0, 66, 81, 40, 13, 53, 17, 124, 13, 29, 35, 0)
s = 116: (0, 89, 83, 21, 12, 59, 30, 67, 19, 46, 23, 0)
s = 117: (0, 54, 65, 31, 12, 45, 18, 124, 21, 50, 21, 0)
s = 118: (0, 56, 47, 42, 12, 70, 18, 137, 14, 36, 39, 0)
s = 119: (0, 64, 73, 35, 8, 64, 10, 69, 12, 52, 36, 0)
s = 120: (0, 49, 59, 31, 11, 65, 18, 81, 15, 35, 23, 0)
s = 121: (0, 39, 78, 22, 11, 49, 23, 135, 8, 37, 36, 0)
s = 122: (0, 75, 92, 37, 11, 46, 20, 111, 10, 42, 33, 0)
s = 123: (0, 45, 78, 27, 15, 32, 16, 64, 8, 48, 25, 0)
s = 124: (0, 83, 88, 29, 11, 43, 23, 65, 17, 26, 27, 0)
s = 125: (0, 34, 43, 17, 7, 49, 11, 127, 24, 22, 36, 0)
s = 126: (0, 58, 84, 23, 17, 64, 20, 142, 22, 42, 49, 0)
s = 127: (0, 34, 45, 21, 12, 72, 25, 139, 13, 29, 32, 0)
s = 128: (0, 81, 66, 55, 15, 35, 19, 58, 13, 30, 24, 0)
s = 129: (0, 36, 46, 21, 9, 34, 12, 71, 12, 33, 21, 0)
s = 130: (0, 70, 71, 23, 17, 52, 14, 137, 17, 23, 20, 0)
s = 131: (0, 60, 72, 29, 20, 50, 14, 103, 15, 39, 32, 0)
s = 132: (0, 65, 60, 48, 11, 39, 31, 71, 10, 30, 17, 0)
s = 133: (0, 35, 90, 34, 11, 57, 18, 171, 14, 59, 16, 0)
s = 134: (0, 51, 93, 23, 8, 31, 10, 102, 19, 44, 39, 0)
s = 135: (0, 40, 72, 35, 12, 47, 16, 87, 11, 30, 29, 0)
s = 136: (0, 78, 62, 39, 12, 53, 13, 88, 20, 33, 40, 0)
s = 137: (0, 67, 72, 23, 16, 30, 20, 88, 19, 41, 19, 0)
s = 138: (0, 57, 106, 37, 12, 57, 16, 112, 19, 36, 45, 0)
s = 139: (0, 39, 39, 43, 15, 76, 10, 119, 13, 38, 38, 0)
s = 140: (0, 36, 52, 22, 17, 27, 25, 134, 18, 52, 29, 0)
s = 141: (0, 57, 87, 28, 8, 47, 21, 121, 11, 61, 29, 0)
s = 142: (0, 80, 55, 26, 10, 32, 21, 88, 10, 35, 23, 0)
s = 143: (0, 91, 40, 29, 8, 33, 13, 116, 11, 49, 40, 0)
s = 144: (0, 60, 39, 21, 14, 35, 16, 146, 13, 26, 38, 0)
s = 145: (0, 51, 61, 30, 15, 50, 23, 102, 11, 32, 32, 0)
s = 146: (0, 45, 82, 42, 14, 47, 33, 92, 11, 41, 46, 0)
s = 147: (0, 39, 40, 43, 13, 58, 23, 101, 12, 46, 24, 0)
s = 148: (0, 34, 85, 29, 8, 48, 15, 103, 18, 22, 29, 0)
s = 149: (0, 53, 57, 46, 21, 31, 12, 91, 14, 32, 41, 0)
s = 150: (0, 63, 45, 28, 8, 46, 14, 105, 19, 30, 26, 0)
s = 151: (0, 38, 48, 24, 8, 52, 23, 94, 16, 62, 30, 0)
s = 152: (0, 61, 41, 32, 9, 47, 9, 107, 11, 60, 29, 0)
s = 153: (0, 40, 85, 40, 11, 44, 19, 184, 20, 54, 53, 0)
s = 154: (0, 34, 62, 46, 16, 44, 14, 105, 14, 30, 34, 0)
s = 155: (0, 54, 55, 26, 12, 38, 20, 159, 13, 52, 33, 0)
s = 156: (0, 43, 58, 35, 15, 38, 31, 67, 13, 51, 34, 0)
s = 157: (0, 31, 66, 42, 12, 49, 23, 113, 13, 50, 26, 0)
s = 158: (0, 50, 45, 26, 7, 79, 12, 99, 12, 30, 34, 0)
s = 159: (0, 52, 51, 39, 18, 46, 22, 69, 12, 43, 27, 0)
s = 160: (0, 66, 65, 21, 18, 37, 12, 80, 15, 31, 35, 0)
s = 161: (0, 54, 95, 28, 9, 33, 17, 157, 23, 48, 37, 0)
s = 162: (0, 77, 34, 28, 10, 35, 25, 118, 21, 48, 23, 0)
s = 163: (0, 72, 68, 25, 12, 34, 15, 175, 24, 29, 29, 0)
s = 164: (0, 65, 81, 45, 19, 58, 17, 106, 12, 32, 43, 0)
s = 165: (0, 55, 74, 22, 8, 45, 16, 90, 9, 36, 18, 0)
s = 166: (0, 63, 62, 29, 16, 48, 20, 70, 9, 51, 22, 0)
s = 167: (0, 51, 69, 37, 10, 50, 13, 95, 8, 42, 22, 0)
s = 168: (0, 46, 55, 24, 8, 48, 17, 120, 20, 78, 23, 0)
s = 169: (0, 50, 45, 25, 8, 45, 14, 96, 17, 40, 43, 0)
s = 170: (0, 42, 88, 32, 10, 40, 23, 116, 9, 34, 39, 0)
s = 171: (0, 47, 42, 30, 21, 40, 9, 63, 15, 58, 20, 0)
s = 172: (0, 65, 56, 34, 19, 57, 25, 69, 14, 34, 25, 0)
s = 173: (0, 53, 63, 38, 16, 44, 14, 61, 10, 28, 32, 0)
s = 174: (0, 48, 63, 22, 8, 50, 15, 81, 13, 41, 31, 0)
s = 175: (0, 66, 67, 28, 10, 37, 21, 151, 17, 24, 35, 0)
s = 176: (0, 74, 84, 20, 18, 54, 21, 77, 8, 67, 29, 0)
s = 177: (0, 48, 121, 42, 9, 71, 16, 75, 11, 32, 32, 0)
s = 178: (0, 46, 45, 41, 16, 75, 28, 121, 9, 63, 28, 0)
s = 179: (0, 53, 72, 19, 11, 39, 15, 136, 14, 29, 18, 0)
s = 180: (0, 55, 46, 23, 9, 44, 28, 63, 10, 47, 25, 0)
s = 181: (0, 74, 69, 39, 16, 57, 12, 80, 11, 40, 18, 0)
s = 182: (0, 48, 99, 50, 12, 60, 15, 82, 11, 40, 33, 0)
s = 183: (0, 56, 38, 21, 14, 44, 16, 91, 17, 53, 38, 0)
s = 184: (0, 36, 53, 33, 14, 43, 17, 61, 18, 44, 24, 0)
s = 185: (0, 52, 68, 40, 9, 74, 15, 177, 18, 42, 32, 0)
s = 186: (0, 43, 44, 33, 17, 70, 15, 68, 15, 52, 24, 0)
s = 187: (0, 60, 62, 40, 12, 35, 19, 111, 17, 33, 30, 0)
s = 188: (0, 90, 68, 43, 8, 36, 19, 74, 12, 26, 20, 0)
s = 189: (0, 36, 47, 41, 8, 28, 13, 136, 11, 57, 35, 0)
s = 190: (0, 68, 103, 30, 9, 53, 11, 100, 17, 35, 23, 0)
s = 191: (0, 62, 94, 28, 14, 44, 14, 103, 22, 55, 38, 0)
s = 192: (0, 48, 79, 46, 8, 31, 15, 104, 9, 36, 23, 0)
s = 193: (0, 79, 51, 31, 11, 45, 20, 86, 9, 32, 31, 0)
s = 194: (0, 56, 48, 27, 11, 72, 22, 89, 12, 35, 30, 0)
s = 195: (0, 46, 58, 27, 14, 30, 13, 110, 17, 29, 21, 0)
s = 196: (0, 42, 73, 23, 11, 58, 14, 122, 8, 29, 35, 0)
s = 197: (0, 63, 49, 45, 10, 48, 17, 98, 9, 39, 50, 0)
s = 198: (0, 57, 84, 43, 10, 52, 15, 92, 13, 40, 19, 0)
s = 199: (0, 71, 52, 36, 17, 49, 23, 76, 16, 49, 23, 0)
s = 200: (0, 80, 74, 33, 13, 56, 18, 84, 10, 41, 28, 0)
------------------------------------------------------------------------
RESOURCE k = 2
s = 1: (0, 33, 35, 15, 5, 24, 5, 48, 5, 16, 9, 0)
s = 2: (0, 17, 18, 17, 7, 19, 7, 30, 4, 22, 28, 0)
s = 3: (0, 20, 19, 15, 4, 29, 13, 51, 6, 20, 17, 0)
s = 4: (0, 12, 23, 30, 5, 14, 8, 38, 8, 14, 17, 0)
s = 5: (0, 13, 23, 31, 7, 15, 9, 75, 8, 26, 17, 0)
s = 6: (0, 27, 18, 20, 8, 12, 8, 61, 5, 15, 25, 0)
s = 7: (0, 21, 17, 23, 4, 26, 9, 69, 5, 26, 21, 0)
s = 8: (0, 15, 24, 22, 9, 28, 9, 44, 7, 10, 30, 0)
s = 9: (0, 16, 21, 15, 5, 19, 10, 94, 6, 12, 12, 0)
s = 10: (0, 18, 31, 24, 7, 16, 10, 52, 4, 13, 20, 0)
s = 11: (0, 16, 31, 18, 6, 19, 8, 80, 7, 17, 18, 0)
s = 12: (0, 25, 22, 23, 6, 19, 8, 45, 4, 26, 10, 0)
s = 13: (0, 21, 27, 14, 6, 17, 7, 49, 5, 17, 22, 0)
s = 14: (0, 10, 25, 21, 6, 13, 12, 64, 4, 21, 15, 0)
s = 15: (0, 19, 30, 19, 8, 17, 7, 32, 9, 11, 23, 0)
s = 16: (0, 16, 19, 25, 8, 17, 8, 71, 5, 19, 20, 0)
s = 17: (0, 21, 22, 19, 5, 23, 8, 53, 6, 16, 13, 0)
s = 18: (0, 17, 22, 21, 5, 17, 15, 32, 6, 15, 25, 0)
s = 19: (0, 16, 23, 30, 6, 15, 14, 33, 4, 21, 13, 0)
s = 20: (0, 14, 23, 20, 8, 10, 6, 48, 5, 14, 12, 0)
s = 21: (0, 11, 24, 19, 4, 22, 6, 46, 6, 17, 20, 0)
s = 22: (0, 27, 32, 18, 6, 14, 10, 37, 8, 21, 17, 0)
s = 23: (0, 18, 23, 33, 7, 18, 9, 44, 6, 10, 18, 0)
s = 24: (0, 24, 19, 22, 7, 16, 10, 47, 4, 23, 19, 0)
s = 25: (0, 13, 27, 29, 6, 16, 6, 92, 5, 32, 20, 0)
s = 26: (0, 27, 20, 22, 6, 16, 7, 58, 5, 19, 16, 0)
s = 27: (0, 12, 36, 15, 7, 19, 7, 46, 6, 19, 11, 0)
s = 28: (0, 14, 22, 11, 9, 15, 9, 43, 4, 24, 10, 0)
s = 29: (0, 17, 31, 30, 6, 16, 8, 35, 8, 12, 12, 0)
s = 30: (0, 18, 20, 21, 5, 16, 8, 40, 4, 15, 15, 0)
s = 31: (0, 11, 23, 21, 7, 18, 7, 35, 5, 24, 17, 0)
s = 32: (0, 13, 28, 13, 5, 17, 7, 50, 4, 13, 15, 0)
s = 33: (0, 11, 35, 19, 7, 14, 6, 38, 7, 15, 22, 0)
s = 34: (0, 16, 38, 25, 5, 23, 6, 27, 4, 12, 12, 0)
s = 35: (0, 13, 17, 29, 4, 16, 9, 59, 7, 15, 14, 0)
s = 36: (0, 25, 37, 22, 8, 16, 12, 28, 6, 20, 17, 0)
s = 37: (0, 16, 21, 21, 11, 22, 12, 43, 5, 16, 17, 0)
s = 38: (0, 22, 16, 18, 6, 21, 11, 47, 6, 22, 19, 0)
s = 39: (0, 26, 30, 31, 5, 14, 6, 60, 7, 20, 11, 0)
s = 40: (0, 19, 20, 21, 8, 13, 10, 47, 4, 28, 10, 0)
s = 41: (0, 16, 17, 19, 8, 20, 7, 66, 4, 14, 17, 0)
s = 42: (0, 29, 33, 18, 8, 14, 6, 44, 6, 15, 18, 0)
s = 43: (0, 22, 28, 15, 7, 16, 7, 72, 4, 17, 12, 0)
s = 44: (0, 15, 28, 23, 7, 19, 8, 47, 6, 29, 22, 0)
s = 45: (0, 24, 23, 15, 6, 21, 16, 65, 7, 23, 12, 0)
s = 46: (0, 24, 33, 18, 4, 15, 8, 29, 4, 22, 11, 0)
s = 47: (0, 15, 16, 20, 8, 23, 7, 38, 4, 11, 17, 0)
s = 48: (0, 17, 32, 24, 6, 21, 8, 35, 6, 18, 22, 0)
s = 49: (0, 14, 36, 30, 4, 17, 8, 37, 5, 27, 13, 0)
s = 50: (0, 21, 20, 13, 5, 29, 9, 39, 7, 11, 15, 0)
s = 51: (0, 21, 22, 28, 4, 21, 7, 52, 8, 24, 18, 0)
s = 52: (0, 17, 15, 23, 4, 16, 13, 60, 5, 22, 12, 0)
s = 53: (0, 13, 24, 23, 5, 22, 7, 43, 5, 26, 16, 0)
s = 54: (0, 15, 30, 24, 9, 18, 8, 47, 5, 14, 19, 0)
s = 55: (0, 15, 18, 14, 8, 26, 9, 46, 4, 13, 16, 0)
s = 56: (0, 13, 18, 23, 5, 17, 10, 58, 4, 13, 14, 0)
s = 57: (0, 17, 30, 12, 7, 13, 7, 32, 4, 19, 12, 0)
s = 58: (0, 24, 14, 11, 5, 25, 7, 28, 4, 15, 16, 0)
s = 59: (0, 23, 16, 25, 6, 27, 7, 36, 5, 23, 17, 0)
s = 60: (0, 26, 34, 16, 9, 21, 6, 37, 4, 22, 22, 0)
s = 61: (0, 14, 30, 15, 8, 18, 12, 32, 7, 25, 10, 0)
s = 62: (0, 19, 23, 22, 6, 12, 8, 38, 3, 13, 11, 0)
s = 63: (0, 14, 18, 21, 7, 13, 6, 56, 3, 12, 14, 0)
s = 64: (0, 30, 27, 18, 8, 14, 7, 50, 5, 21, 18, 0)
s = 65: (0, 19, 24, 17, 5, 16, 11, 31, 3, 20, 20, 0)
s = 66: (0, 12, 28, 15, 5, 18, 10, 36, 5, 29, 20, 0)
s = 67: (0, 18, 15, 15, 5, 17, 10, 41, 5, 15, 13, 0)
s = 68: (0, 11, 37, 19, 7, 18, 6, 56, 7, 24, 23, 0)
s = 69: (0, 10, 24, 32, 6, 18, 13, 52, 4, 10, 27, 0)
s = 70: (0, 21, 20, 22, 6, 14, 6, 41, 4, 33, 13, 0)
s = 71: (0, 33, 26, 23, 8, 18, 5, 48, 7, 20, 16, 0)
s = 72: (0, 15, 21, 18, 7, 14, 9, 42, 8, 14, 17, 0)
s = 73: (0, 13, 29, 26, 8, 20, 7, 55, 6, 17, 18, 0)
s = 74: (0, 29, 36, 25, 4, 18, 14, 64, 8, 12, 11, 0)
s = 75: (0, 21, 18, 23, 6, 17, 10, 82, 3, 15, 18, 0)
s = 76: (0, 17, 30, 20, 8, 18, 15, 47, 5, 26, 24, 0)
s = 77: (0, 13, 29, 22, 9, 18, 9, 38, 4, 11, 13, 0)
s = 78: (0, 12, 18, 20, 6, 27, 10, 38, 7, 25, 16, 0)
s = 79: (0, 12, 24, 26, 6, 24, 6, 67, 4, 15, 11, 0)
s = 80: (0, 17, 17, 14, 6, 29, 6, 51, 7, 20, 12, 0)
s = 81: (0, 20, 15, 38, 9, 17, 9, 43, 5, 17, 15, 0)
s = 82: (0, 11, 26, 19, 6, 16, 7, 52, 5, 13, 15, 0)
s = 83: (0, 17, 28, 29, 8, 17, 9, 28, 5, 16, 11, 0)
s = 84: (0, 11, 18, 14, 5, 19, 7, 43, 5, 19, 13, 0)
s = 85: (0, 19, 34, 23, 5, 16, 10, 32, 5, 20, 17, 0)
s = 86: (0, 34, 25, 18, 5, 26, 5, 42, 6, 15, 13, 0)
s = 87: (0, 16, 32, 22, 9, 18, 6, 35, 7, 17, 17, 0)
s = 88: (0, 12, 18, 17, 4, 26, 6, 34, 4, 26, 23, 0)
s = 89: (0, 28, 32, 24, 8, 27, 9, 49, 5, 22, 17, 0)
s = 90: (0, 14, 16, 31, 4, 22, 7, 50, 7, 18, 24, 0)
s = 91: (0, 18, 30, 16, 7, 27, 11, 46, 6, 19, 15, 0)
s = 92: (0, 17, 18, 14, 6, 12, 10, 33, 6, 16, 15, 0)
s = 93: (0, 19, 17, 22, 9, 16, 6, 53, 8, 20, 22, 0)
s = 94: (0, 24, 33, 31, 5, 19, 9, 73, 8, 20, 17, 0)
s = 95: (0, 25, 21, 13, 5, 20, 7, 32, 5, 16, 23, 0)
s = 96: (0, 23, 18, 12, 5, 24, 10, 38, 3, 17, 20, 0)
s = 97: (0, 29, 27, 34, 7, 18, 8, 38, 7, 16, 12, 0)
s = 98: (0, 18, 28, 20, 8, 22, 10, 49, 3, 16, 15, 0)
s = 99: (0, 22, 28, 15, 6, 31, 9, 38, 7, 14, 12, 0)
s = 100: (0, 13, 16, 23, 9, 13, 9, 41, 6, 14, 16, 0)
s = 101: (0, 22, 24, 22, 7, 15, 10, 37, 8, 12, 20, 0)
s = 102: (0, 27, 29, 16, 5, 28, 14, 33, 5, 15, 13, 0)
s = 103: (0, 11, 19, 18, 9, 13, 6, 40, 5, 15, 24, 0)
s = 104: (0, 16, 13, 17, 9, 18, 11, 33, 10, 25, 23, 0)
s = 105: (0, 20, 26, 27, 9, 18, 8, 44, 8, 19, 22, 0)
s = 106: (0, 15, 35, 21, 5, 18, 8, 56, 5, 19, 17, 0)
s = 107: (0, 15, 28, 15, 6, 14, 13, 44, 4, 31, 11, 0)
s = 108: (0, 13, 19, 16, 4, 13, 7, 38, 5, 12, 23, 0)
s = 109: (0, 18, 35, 26, 4, 22, 9, 31, 6, 19, 14, 0)
s = 110: (0, 15, 31, 22, 6, 25, 11, 64, 9, 17, 20, 0)
s = 111: (0, 12, 30, 28, 6, 12, 8, 28, 7, 19, 18, 0)
s = 112: (0, 12, 37, 22, 7, 14, 10, 52, 6, 23, 15, 0)
s = 113: (0, 19, 38, 27, 7, 21, 9, 31, 5, 15, 19, 0)
s = 114: (0, 13, 25, 22, 4, 19, 6, 71, 6, 20, 19, 0)
s = 115: (0, 21, 31, 25, 7, 20, 8, 58, 5, 14, 19, 0)
s = 116: (0, 28, 31, 13, 6, 22, 14, 31, 8, 22, 13, 0)
s = 117: (0, 17, 25, 20, 6, 17, 9, 58, 8, 23, 12, 0)
s = 118: (0, 18, 18, 27, 6, 27, 9, 64, 6, 17, 21, 0)
s = 119: (0, 21, 28, 22, 4, 24, 5, 32, 5, 24, 20, 0)
s = 120: (0, 16, 22, 20, 6, 25, 9, 38, 6, 16, 13, 0)
s = 121: (0, 13, 30, 14, 6, 19, 11, 63, 3, 17, 19, 0)
s = 122: (0, 24, 35, 24, 6, 18, 10, 52, 4, 20, 18, 0)
s = 123: (0, 15, 29, 17, 8, 12, 8, 30, 3, 22, 14, 0)
s = 124: (0, 27, 33, 18, 6, 16, 11, 31, 7, 12, 15, 0)
s = 125: (0, 11, 16, 11, 4, 19, 6, 60, 10, 10, 20, 0)
s = 126: (0, 19, 32, 15, 9, 24, 10, 67, 9, 19, 26, 0)
s = 127: (0, 11, 17, 14, 6, 27, 12, 65, 5, 14, 17, 0)
s = 128: (0, 26, 25, 35, 8, 13, 9, 27, 5, 14, 13, 0)
s = 129: (0, 12, 17, 13, 5, 13, 6, 33, 5, 16, 12, 0)
s = 130: (0, 22, 27, 15, 9, 20, 7, 64, 7, 11, 11, 0)
s = 131: (0, 19, 27, 19, 10, 19, 7, 48, 6, 18, 17, 0)
s = 132: (0, 21, 23, 31, 6, 15, 15, 33, 4, 14, 9, 0)
s = 133: (0, 11, 34, 22, 6, 22, 9, 80, 6, 28, 9, 0)
s = 134: (0, 17, 35, 15, 4, 12, 5, 48, 8, 21, 21, 0)
s = 135: (0, 13, 27, 23, 6, 18, 8, 41, 5, 14, 15, 0)
s = 136: (0, 25, 24, 25, 6, 20, 6, 41, 8, 15, 22, 0)
s = 137: (0, 21, 27, 15, 8, 12, 10, 41, 7, 19, 11, 0)
s = 138: (0, 18, 40, 24, 6, 22, 8, 53, 7, 17, 24, 0)
s = 139: (0, 13, 15, 27, 8, 29, 5, 56, 5, 18, 20, 0)
s = 140: (0, 12, 20, 14, 9, 10, 12, 63, 7, 24, 15, 0)
s = 141: (0, 18, 33, 18, 4, 18, 10, 57, 5, 28, 16, 0)
s = 142: (0, 25, 21, 17, 5, 12, 10, 41, 4, 16, 13, 0)
s = 143: (0, 29, 15, 19, 4, 13, 6, 54, 4, 23, 22, 0)
s = 144: (0, 19, 15, 13, 7, 14, 8, 68, 5, 12, 20, 0)
s = 145: (0, 16, 23, 19, 8, 19, 11, 48, 5, 15, 17, 0)
s = 146: (0, 15, 31, 27, 7, 18, 16, 43, 5, 19, 25, 0)
s = 147: (0, 13, 15, 28, 7, 22, 11, 48, 5, 21, 13, 0)
s = 148: (0, 11, 32, 19, 4, 18, 7, 48, 7, 10, 15, 0)
s = 149: (0, 17, 22, 29, 11, 12, 6, 43, 6, 15, 22, 0)
s = 150: (0, 20, 17, 18, 4, 18, 7, 49, 8, 14, 14, 0)
s = 151: (0, 12, 18, 16, 4, 20, 11, 44, 7, 29, 16, 0)
s = 152: (0, 19, 16, 21, 5, 18, 5, 50, 4, 28, 16, 0)
s = 153: (0, 13, 32, 26, 6, 17, 9, 86, 8, 25, 28, 0)
s = 154: (0, 11, 23, 29, 8, 17, 7, 49, 6, 14, 18, 0)
s = 155: (0, 18, 21, 16, 6, 15, 10, 74, 5, 24, 18, 0)
s = 156: (0, 14, 22, 22, 8, 14, 15, 32, 5, 24, 18, 0)
s = 157: (0, 10, 25, 27, 6, 19, 11, 53, 5, 23, 14, 0)
s = 158: (0, 16, 17, 17, 4, 30, 6, 47, 5, 14, 19, 0)
s = 159: (0, 17, 19, 25, 9, 18, 11, 32, 5, 20, 15, 0)
s = 160: (0, 21, 25, 14, 9, 14, 6, 37, 6, 15, 19, 0)
s = 161: (0, 18, 36, 18, 5, 13, 8, 74, 9, 22, 20, 0)
s = 162: (0, 25, 13, 18, 5, 13, 12, 55, 8, 22, 12, 0)
s = 163: (0, 23, 26, 16, 6, 13, 7, 82, 10, 14, 15, 0)
s = 164: (0, 21, 31, 29, 10, 22, 8, 50, 5, 15, 23, 0)
s = 165: (0, 18, 28, 14, 4, 17, 8, 42, 4, 17, 10, 0)
s = 166: (0, 20, 24, 19, 8, 18, 10, 33, 4, 24, 12, 0)
s = 167: (0, 17, 26, 24, 5, 19, 6, 45, 3, 19, 12, 0)
s = 168: (0, 15, 21, 15, 4, 18, 8, 56, 8, 36, 12, 0)
s = 169: (0, 16, 17, 16, 4, 17, 7, 45, 7, 19, 23, 0)
s = 170: (0, 14, 33, 21, 5, 15, 11, 54, 4, 16, 21, 0)
s = 171: (0, 15, 16, 19, 11, 15, 5, 30, 6, 27, 11, 0)
s = 172: (0, 21, 21, 22, 10, 22, 12, 32, 6, 16, 13, 0)
s = 173: (0, 17, 24, 24, 8, 17, 7, 29, 4, 13, 17, 0)
s = 174: (0, 16, 24, 14, 4, 19, 7, 38, 5, 19, 17, 0)
s = 175: (0, 21, 25, 18, 5, 14, 10, 71, 7, 12, 19, 0)
s = 176: (0, 24, 32, 13, 9, 21, 10, 36, 3, 31, 16, 0)
s = 177: (0, 15, 46, 27, 5, 27, 8, 35, 5, 15, 17, 0)
s = 178: (0, 15, 17, 26, 8, 29, 14, 57, 4, 29, 15, 0)
s = 179: (0, 17, 27, 12, 6, 15, 7, 64, 6, 14, 10, 0)
s = 180: (0, 18, 17, 15, 5, 17, 13, 30, 4, 22, 13, 0)
s = 181: (0, 24, 26, 25, 8, 22, 6, 38, 4, 19, 10, 0)
s = 182: (0, 15, 38, 32, 6, 23, 7, 39, 5, 19, 18, 0)
s = 183: (0, 18, 15, 14, 7, 17, 8, 43, 7, 25, 20, 0)
s = 184: (0, 12, 20, 21, 7, 17, 8, 29, 7, 20, 13, 0)
s = 185: (0, 17, 26, 26, 5, 28, 7, 83, 7, 20, 17, 0)
s = 186: (0, 14, 17, 21, 9, 26, 7, 32, 6, 24, 13, 0)
s = 187: (0, 19, 23, 25, 6, 14, 9, 52, 7, 15, 16, 0)
s = 188: (0, 29, 26, 28, 4, 14, 9, 35, 5, 12, 11, 0)
s = 189: (0, 12, 18, 27, 4, 11, 6, 64, 4, 26, 19, 0)
s = 190: (0, 22, 39, 20, 5, 20, 6, 47, 7, 16, 12, 0)
s = 191: (0, 20, 35, 18, 7, 17, 7, 48, 9, 25, 21, 0)
s = 192: (0, 16, 30, 29, 4, 12, 7, 49, 4, 17, 13, 0)
s = 193: (0, 25, 19, 20, 6, 17, 10, 40, 4, 15, 17, 0)
s = 194: (0, 18, 18, 18, 6, 27, 11, 42, 5, 16, 16, 0)
s = 195: (0, 15, 22, 17, 7, 12, 6, 52, 7, 14, 12, 0)
s = 196: (0, 14, 28, 15, 6, 22, 7, 57, 3, 14, 19, 0)
s = 197: (0, 20, 19, 29, 5, 18, 8, 46, 4, 18, 27, 0)
s = 198: (0, 18, 32, 27, 5, 20, 7, 43, 5, 19, 11, 0)
s = 199: (0, 23, 20, 23, 9, 19, 11, 36, 7, 23, 12, 0)
s = 200: (0, 26, 28, 21, 7, 21, 9, 39, 4, 19, 15, 0)
------------------------------------------------------------------------
RESOURCE k = 3
s = 1: (0, 11, 41, 13, 3, 24, 5, 28, 6, 27, 12, 0)
s = 2: (0, 6, 21, 15, 4, 19, 7, 17, 5, 37, 35, 0)
s = 3: (0, 7, 22, 13, 2, 29, 13, 29, 7, 33, 21, 0)
s = 4: (0, 4, 26, 25, 3, 14, 8, 22, 9, 24, 22, 0)
s = 5: (0, 5, 27, 26, 4, 15, 9, 43, 10, 43, 21, 0)
s = 6: (0, 9, 21, 17, 4, 12, 8, 35, 6, 24, 31, 0)
s = 7: (0, 7, 20, 20, 2, 26, 9, 39, 6, 42, 26, 0)
s = 8: (0, 5, 28, 19, 5, 28, 9, 26, 8, 17, 37, 0)
s = 9: (0, 6, 24, 13, 3, 19, 10, 54, 7, 20, 15, 0)
s = 10: (0, 6, 36, 21, 4, 16, 10, 30, 4, 22, 25, 0)
s = 11: (0, 6, 36, 15, 3, 19, 8, 46, 8, 28, 22, 0)
s = 12: (0, 9, 25, 20, 3, 19, 8, 26, 5, 42, 13, 0)
s = 13: (0, 7, 31, 12, 3, 17, 7, 28, 6, 28, 28, 0)
s = 14: (0, 4, 29, 18, 3, 13, 12, 37, 5, 34, 19, 0)
s = 15: (0, 7, 34, 16, 4, 17, 7, 18, 11, 17, 28, 0)
s = 16: (0, 6, 22, 21, 4, 17, 8, 41, 6, 32, 25, 0)
s = 17: (0, 7, 26, 16, 3, 23, 8, 31, 8, 26, 16, 0)
s = 18: (0, 6, 26, 18, 3, 17, 15, 19, 7, 24, 31, 0)
s = 19: (0, 6, 27, 26, 3, 15, 14, 19, 5, 35, 16, 0)
s = 20: (0, 5, 26, 17, 4, 10, 6, 27, 6, 22, 14, 0)
s = 21: (0, 4, 28, 17, 2, 22, 6, 26, 8, 28, 25, 0)
s = 22: (0, 9, 37, 16, 3, 14, 10, 22, 9, 35, 21, 0)
s = 23: (0, 6, 26, 28, 4, 18, 9, 25, 7, 16, 22, 0)
s = 24: (0, 8, 23, 19, 4, 16, 10, 27, 5, 38, 23, 0)
s = 25: (0, 5, 32, 25, 3, 16, 6, 53, 6, 52, 24, 0)
s = 26: (0, 9, 23, 19, 3, 16, 7, 34, 6, 31, 20, 0)
s = 27: (0, 4, 42, 13, 4, 19, 7, 27, 7, 31, 13, 0)
s = 28: (0, 5, 26, 10, 5, 15, 9, 25, 4, 39, 13, 0)
s = 29: (0, 6, 37, 25, 3, 16, 8, 20, 9, 20, 15, 0)
s = 30: (0, 6, 23, 18, 3, 16, 8, 23, 5, 24, 18, 0)
s = 31: (0, 4, 26, 18, 4, 18, 7, 20, 6, 40, 22, 0)
s = 32: (0, 5, 33, 12, 3, 17, 7, 29, 5, 22, 19, 0)
s = 33: (0, 4, 40, 16, 4, 14, 6, 22, 9, 25, 28, 0)
s = 34: (0, 6, 45, 22, 3, 23, 6, 16, 4, 20, 15, 0)
s = 35: (0, 5, 19, 25, 2, 16, 9, 34, 8, 24, 18, 0)
s = 36: (0, 9, 43, 19, 4, 16, 12, 16, 7, 33, 21, 0)
s = 37: (0, 6, 25, 18, 6, 22, 12, 25, 6, 26, 22, 0)
s = 38: (0, 8, 19, 16, 3, 21, 11, 27, 7, 36, 24, 0)
s = 39: (0, 9, 35, 27, 3, 14, 6, 34, 9, 33, 14, 0)
s = 40: (0, 7, 23, 18, 4, 13, 10, 27, 5, 46, 12, 0)
s = 41: (0, 6, 20, 16, 4, 20, 7, 38, 4, 23, 22, 0)
s = 42: (0, 10, 38, 16, 4, 14, 6, 25, 7, 25, 23, 0)
s = 43: (0, 8, 32, 13, 4, 16, 7, 41, 5, 29, 15, 0)
s = 44: (0, 5, 33, 20, 4, 19, 8, 27, 7, 47, 28, 0)
s = 45: (0, 8, 26, 13, 3, 21, 16, 37, 8, 37, 15, 0)
s = 46: (0, 8, 38, 15, 2, 15, 8, 17, 5, 37, 14, 0)
s = 47: (0, 5, 19, 17, 4, 23, 7, 22, 5, 18, 22, 0)
s = 48: (0, 6, 37, 20, 3, 21, 8, 20, 7, 29, 27, 0)
s = 49: (0, 5, 42, 26, 2, 17, 8, 21, 5, 45, 16, 0)
s = 50: (0, 7, 24, 11, 3, 29, 9, 22, 8, 17, 19, 0)
s = 51: (0, 7, 26, 24, 2, 21, 7, 30, 9, 40, 22, 0)
s = 52: (0, 6, 18, 20, 2, 16, 13, 35, 5, 37, 15, 0)
s = 53: (0, 5, 28, 20, 3, 22, 7, 25, 6, 43, 20, 0)
s = 54: (0, 5, 35, 20, 5, 18, 8, 27, 6, 23, 24, 0)
s = 55: (0, 5, 21, 12, 4, 26, 9, 26, 4, 21, 19, 0)
s = 56: (0, 5, 20, 20, 3, 17, 10, 33, 5, 21, 18, 0)
s = 57: (0, 6, 35, 10, 4, 13, 7, 19, 5, 31, 14, 0)
s = 58: (0, 8, 16, 10, 3, 25, 7, 16, 5, 24, 20, 0)
s = 59: (0, 8, 19, 22, 3, 27, 7, 21, 6, 39, 21, 0)
s = 60: (0, 9, 40, 14, 5, 21, 6, 21, 5, 37, 27, 0)
s = 61: (0, 5, 34, 13, 4, 18, 12, 19, 8, 42, 12, 0)
s = 62: (0, 7, 26, 19, 3, 12, 8, 22, 4, 22, 14, 0)
s = 63: (0, 5, 21, 18, 4, 13, 6, 32, 4, 20, 17, 0)
s = 64: (0, 10, 31, 16, 4, 14, 7, 29, 6, 35, 22, 0)
s = 65: (0, 7, 28, 15, 3, 16, 11, 18, 4, 33, 25, 0)
s = 66: (0, 4, 33, 13, 3, 18, 10, 21, 6, 48, 25, 0)
s = 67: (0, 6, 18, 13, 3, 17, 10, 24, 6, 25, 16, 0)
s = 68: (0, 4, 44, 16, 4, 18, 6, 32, 9, 40, 29, 0)
s = 69: (0, 4, 28, 28, 3, 18, 13, 30, 4, 17, 33, 0)
s = 70: (0, 7, 24, 19, 3, 14, 6, 24, 5, 55, 16, 0)
s = 71: (0, 11, 30, 20, 4, 18, 5, 28, 8, 32, 20, 0)
s = 72: (0, 5, 24, 15, 4, 14, 9, 24, 10, 23, 21, 0)
s = 73: (0, 5, 34, 22, 4, 20, 7, 31, 8, 29, 23, 0)
s = 74: (0, 10, 42, 22, 2, 18, 14, 37, 9, 20, 14, 0)
s = 75: (0, 7, 21, 20, 3, 17, 10, 47, 4, 25, 23, 0)
s = 76: (0, 6, 34, 17, 4, 18, 15, 27, 6, 44, 30, 0)
s = 77: (0, 5, 34, 19, 5, 18, 9, 22, 4, 19, 17, 0)
s = 78: (0, 4, 21, 18, 3, 27, 10, 22, 8, 42, 20, 0)
s = 79: (0, 4, 28, 22, 3, 24, 6, 38, 5, 24, 14, 0)
s = 80: (0, 6, 20, 12, 3, 29, 6, 29, 8, 33, 15, 0)
s = 81: (0, 7, 18, 32, 5, 17, 9, 25, 6, 28, 19, 0)
s = 82: (0, 4, 30, 16, 3, 16, 7, 30, 6, 22, 18, 0)
s = 83: (0, 6, 32, 25, 4, 17, 9, 16, 6, 26, 13, 0)
s = 84: (0, 4, 21, 12, 3, 19, 7, 25, 6, 31, 16, 0)
s = 85: (0, 7, 39, 20, 3, 16, 10, 19, 6, 32, 22, 0)
s = 86: (0, 12, 29, 15, 3, 26, 5, 24, 8, 25, 17, 0)
s = 87: (0, 6, 37, 19, 5, 18, 6, 20, 9, 28, 22, 0)
s = 88: (0, 4, 21, 14, 2, 26, 6, 20, 4, 44, 29, 0)
s = 89: (0, 10, 37, 21, 4, 27, 9, 28, 6, 36, 22, 0)
s = 90: (0, 5, 18, 26, 2, 22, 7, 29, 8, 30, 30, 0)
s = 91: (0, 6, 35, 14, 4, 27, 11, 27, 7, 32, 19, 0)
s = 92: (0, 6, 21, 12, 3, 12, 10, 19, 7, 26, 19, 0)
s = 93: (0, 7, 20, 19, 5, 16, 6, 30, 10, 34, 27, 0)
s = 94: (0, 8, 38, 27, 3, 19, 9, 42, 9, 33, 21, 0)
s = 95: (0, 9, 24, 11, 3, 20, 7, 19, 6, 26, 29, 0)
s = 96: (0, 8, 21, 11, 3, 24, 10, 22, 4, 27, 25, 0)
s = 97: (0, 10, 32, 29, 4, 18, 8, 22, 8, 27, 14, 0)
s = 98: (0, 6, 32, 17, 4, 22, 10, 28, 4, 26, 19, 0)
s = 99: (0, 8, 33, 13, 3, 31, 9, 22, 8, 23, 14, 0)
s = 100: (0, 5, 19, 20, 5, 13, 9, 24, 7, 23, 20, 0)
s = 101: (0, 8, 27, 19, 4, 15, 10, 21, 9, 20, 25, 0)
s = 102: (0, 9, 34, 14, 3, 28, 14, 19, 6, 25, 16, 0)
s = 103: (0, 4, 22, 16, 5, 13, 6, 23, 5, 25, 30, 0)
s = 104: (0, 6, 15, 14, 5, 18, 11, 19, 12, 41, 28, 0)
s = 105: (0, 7, 31, 23, 5, 18, 8, 25, 10, 31, 27, 0)
s = 106: (0, 5, 41, 18, 3, 18, 8, 32, 6, 31, 21, 0)
s = 107: (0, 5, 32, 13, 3, 14, 13, 25, 5, 52, 13, 0)
s = 108: (0, 5, 22, 14, 2, 13, 7, 22, 6, 20, 29, 0)
s = 109: (0, 6, 40, 22, 2, 22, 9, 18, 7, 32, 17, 0)
s = 110: (0, 5, 36, 19, 3, 25, 11, 37, 11, 28, 25, 0)
s = 111: (0, 4, 35, 24, 3, 12, 8, 16, 8, 32, 23, 0)
s = 112: (0, 4, 43, 19, 4, 14, 10, 30, 7, 38, 19, 0)
s = 113: (0, 7, 44, 23, 4, 21, 9, 18, 5, 25, 23, 0)
s = 114: (0, 5, 29, 19, 2, 19, 6, 41, 7, 32, 24, 0)
s = 115: (0, 7, 36, 22, 4, 20, 8, 33, 6, 22, 23, 0)
s = 116: (0, 10, 36, 12, 3, 22, 14, 18, 9, 36, 16, 0)
s = 117: (0, 6, 29, 17, 3, 17, 9, 33, 10, 39, 14, 0)
s = 118: (0, 6, 21, 23, 3, 27, 9, 37, 7, 28, 26, 0)
s = 119: (0, 7, 32, 19, 2, 24, 5, 19, 6, 40, 24, 0)
s = 120: (0, 6, 26, 17, 3, 25, 9, 22, 7, 27, 16, 0)
s = 121: (0, 5, 35, 12, 3, 19, 11, 36, 4, 29, 24, 0)
s = 122: (0, 8, 41, 20, 3, 18, 10, 30, 5, 33, 22, 0)
s = 123: (0, 5, 34, 15, 4, 12, 8, 17, 4, 37, 17, 0)
s = 124: (0, 9, 39, 16, 3, 16, 11, 18, 8, 20, 18, 0)
s = 125: (0, 4, 19, 10, 2, 19, 6, 34, 12, 17, 24, 0)
s = 126: (0, 7, 37, 13, 5, 24, 10, 38, 11, 32, 33, 0)
s = 127: (0, 4, 20, 12, 3, 27, 12, 38, 6, 23, 22, 0)
s = 128: (0, 9, 29, 30, 4, 13, 9, 16, 6, 24, 16, 0)
s = 129: (0, 4, 20, 11, 3, 13, 6, 19, 6, 26, 14, 0)
s = 130: (0, 8, 31, 13, 5, 20, 7, 37, 8, 18, 13, 0)
s = 131: (0, 7, 32, 16, 5, 19, 7, 28, 7, 30, 21, 0)
s = 132: (0, 7, 27, 26, 3, 15, 15, 19, 5, 23, 12, 0)
s = 133: (0, 4, 40, 19, 3, 22, 9, 46, 7, 46, 11, 0)
s = 134: (0, 6, 41, 13, 2, 12, 5, 27, 9, 34, 26, 0)
s = 135: (0, 5, 32, 19, 3, 18, 8, 24, 5, 23, 19, 0)
s = 136: (0, 9, 27, 21, 3, 20, 6, 24, 9, 25, 27, 0)
s = 137: (0, 7, 32, 13, 4, 12, 10, 24, 9, 31, 13, 0)
s = 138: (0, 6, 46, 21, 3, 22, 8, 30, 9, 28, 30, 0)
s = 139: (0, 5, 17, 23, 4, 29, 5, 32, 6, 29, 25, 0)
s = 140: (0, 4, 23, 12, 5, 10, 12, 36, 9, 40, 19, 0)
s = 141: (0, 6, 38, 15, 2, 18, 10, 33, 5, 47, 20, 0)
s = 142: (0, 9, 24, 14, 3, 12, 10, 24, 5, 27, 16, 0)
s = 143: (0, 10, 18, 16, 2, 13, 6, 31, 5, 38, 27, 0)
s = 144: (0, 7, 17, 12, 4, 14, 8, 39, 6, 20, 25, 0)
s = 145: (0, 6, 27, 17, 4, 19, 11, 28, 6, 25, 21, 0)
s = 146: (0, 5, 36, 23, 4, 18, 16, 25, 5, 31, 31, 0)
s = 147: (0, 5, 18, 24, 4, 22, 11, 27, 6, 35, 16, 0)
s = 148: (0, 4, 37, 16, 2, 18, 7, 28, 8, 17, 19, 0)
s = 149: (0, 6, 25, 25, 6, 12, 6, 25, 7, 25, 27, 0)
s = 150: (0, 7, 20, 16, 2, 18, 7, 28, 9, 23, 17, 0)
s = 151: (0, 4, 21, 13, 2, 20, 11, 25, 8, 48, 20, 0)
s = 152: (0, 7, 18, 18, 3, 18, 5, 29, 5, 47, 20, 0)
s = 153: (0, 5, 37, 22, 3, 17, 9, 49, 9, 42, 35, 0)
s = 154: (0, 4, 27, 25, 4, 17, 7, 28, 7, 23, 23, 0)
s = 155: (0, 6, 24, 14, 3, 15, 10, 43, 6, 40, 22, 0)
s = 156: (0, 5, 25, 19, 4, 14, 15, 18, 6, 40, 23, 0)
s = 157: (0, 4, 29, 23, 3, 19, 11, 31, 6, 39, 18, 0)
s = 158: (0, 6, 20, 15, 2, 30, 6, 27, 6, 23, 23, 0)
s = 159: (0, 6, 23, 21, 5, 18, 11, 19, 6, 33, 18, 0)
s = 160: (0, 7, 29, 12, 5, 14, 6, 22, 7, 24, 24, 0)
s = 161: (0, 6, 42, 15, 3, 13, 8, 42, 11, 37, 25, 0)
s = 162: (0, 9, 15, 16, 3, 13, 12, 32, 10, 37, 15, 0)
s = 163: (0, 8, 30, 14, 3, 13, 7, 47, 12, 23, 19, 0)
s = 164: (0, 7, 36, 25, 5, 22, 8, 29, 6, 25, 29, 0)
s = 165: (0, 6, 33, 12, 2, 17, 8, 24, 5, 28, 12, 0)
s = 166: (0, 7, 27, 16, 4, 18, 10, 19, 5, 39, 15, 0)
s = 167: (0, 6, 31, 21, 3, 19, 6, 26, 4, 32, 15, 0)
s = 168: (0, 5, 24, 13, 2, 18, 8, 32, 9, 60, 15, 0)
s = 169: (0, 6, 20, 14, 2, 17, 7, 26, 8, 31, 29, 0)
s = 170: (0, 5, 39, 18, 3, 15, 11, 31, 4, 26, 26, 0)
s = 171: (0, 5, 19, 17, 6, 15, 5, 17, 7, 45, 14, 0)
s = 172: (0, 7, 25, 19, 5, 22, 12, 19, 7, 27, 17, 0)
s = 173: (0, 6, 28, 21, 4, 17, 7, 17, 5, 21, 21, 0)
s = 174: (0, 6, 28, 12, 2, 19, 7, 22, 6, 31, 21, 0)
s = 175: (0, 7, 30, 16, 3, 14, 10, 41, 8, 19, 24, 0)
s = 176: (0, 8, 37, 11, 5, 21, 10, 21, 4, 51, 20, 0)
s = 177: (0, 5, 53, 23, 3, 27, 8, 20, 5, 25, 21, 0)
s = 178: (0, 5, 20, 23, 4, 29, 14, 33, 4, 48, 19, 0)
s = 179: (0, 6, 32, 11, 3, 15, 7, 37, 7, 23, 12, 0)
s = 180: (0, 6, 20, 13, 3, 17, 13, 17, 5, 36, 17, 0)
s = 181: (0, 8, 30, 22, 4, 22, 6, 22, 5, 31, 12, 0)
s = 182: (0, 5, 44, 27, 3, 23, 7, 22, 5, 31, 22, 0)
s = 183: (0, 6, 17, 12, 4, 17, 8, 25, 8, 41, 25, 0)
s = 184: (0, 4, 23, 18, 4, 17, 8, 17, 8, 34, 16, 0)
s = 185: (0, 6, 30, 22, 3, 28, 7, 47, 8, 33, 22, 0)
s = 186: (0, 5, 20, 18, 5, 26, 7, 18, 7, 40, 16, 0)
s = 187: (0, 7, 27, 22, 3, 14, 9, 30, 8, 25, 20, 0)
s = 188: (0, 10, 30, 24, 2, 14, 9, 20, 6, 20, 13, 0)
s = 189: (0, 4, 21, 23, 2, 11, 6, 37, 5, 44, 24, 0)
s = 190: (0, 8, 45, 17, 3, 20, 6, 27, 8, 27, 15, 0)
s = 191: (0, 7, 41, 15, 4, 17, 7, 28, 10, 42, 26, 0)
s = 192: (0, 6, 35, 25, 2, 12, 7, 28, 5, 28, 16, 0)
s = 193: (0, 9, 23, 17, 3, 17, 10, 23, 4, 25, 21, 0)
s = 194: (0, 6, 21, 15, 3, 27, 11, 24, 6, 27, 20, 0)
s = 195: (0, 5, 26, 15, 4, 12, 6, 30, 8, 22, 14, 0)
s = 196: (0, 5, 32, 13, 3, 22, 7, 33, 4, 23, 23, 0)
s = 197: (0, 7, 22, 25, 3, 18, 8, 27, 5, 30, 34, 0)
s = 198: (0, 6, 37, 23, 3, 20, 7, 25, 6, 31, 13, 0)
s = 199: (0, 8, 23, 20, 5, 19, 11, 21, 8, 38, 15, 0)
s = 200: (0, 9, 32, 18, 4, 21, 9, 23, 5, 32, 19, 0)
************************************************************************
ES/LS-VALUES:
jobnr.   ES(i)    LS(i)
------------------------------------------------------------------------
  0        0        0
  1        0       59
  2        0       63
  3        0       53
  4        7       71
  5        5       59
  6       10       73
  7       10       65
  8       23       79
  9       12       75
 10       12       77
 11       25       81
************************************************************************
BIG-M-VALUES:
M1 = 77, M2 = 349
************************************************************************
